c description: Tseitin formula on Random 4-regular graph of 35 vertices, with odd charge
c generator: CNFgen (0.9.2)
c copyright: (C) 2012-2022 Massimo Lauria <massimo.lauria@uniroma1.it>
c url: https://massimolauria.net/cnfgen
c command line: cnfgen tseitin 35
c
p cnf 70 280
1 2 3 4 0
1 2 -3 -4 0
1 -2 3 -4 0
1 -2 -3 4 0
-1 2 3 -4 0
-1 2 -3 4 0
-1 -2 3 4 0
-1 -2 -3 -4 0
5 6 7 -8 0
5 6 -7 8 0
5 -6 7 8 0
5 -6 -7 -8 0
-5 6 7 8 0
-5 6 -7 -8 0
-5 -6 7 -8 0
-5 -6 -7 8 0
9 10 11 -12 0
9 10 -11 12 0
9 -10 11 12 0
9 -10 -11 -12 0
-9 10 11 12 0
-9 10 -11 -12 0
-9 -10 11 -12 0
-9 -10 -11 12 0
13 14 15 -16 0
13 14 -15 16 0
13 -14 15 16 0
13 -14 -15 -16 0
-13 14 15 16 0
-13 14 -15 -16 0
-13 -14 15 -16 0
-13 -14 -15 16 0
17 18 19 -20 0
17 18 -19 20 0
17 -18 19 20 0
17 -18 -19 -20 0
-17 18 19 20 0
-17 18 -19 -20 0
-17 -18 19 -20 0
-17 -18 -19 20 0
5 17 21 -22 0
5 17 -21 22 0
5 -17 21 22 0
5 -17 -21 -22 0
-5 17 21 22 0
-5 17 -21 -22 0
-5 -17 21 -22 0
-5 -17 -21 22 0
23 24 25 -26 0
23 24 -25 26 0
23 -24 25 26 0
23 -24 -25 -26 0
-23 24 25 26 0
-23 24 -25 -26 0
-23 -24 25 -26 0
-23 -24 -25 26 0
23 27 28 -29 0
23 27 -28 29 0
23 -27 28 29 0
23 -27 -28 -29 0
-23 27 28 29 0
-23 27 -28 -29 0
-23 -27 28 -29 0
-23 -27 -28 29 0
9 30 31 32 0
9 30 -31 -32 0
9 -30 31 -32 0
9 -30 -31 32 0
-9 30 31 -32 0
-9 30 -31 32 0
-9 -30 31 32 0
-9 -30 -31 -32 0
10 13 27 -33 0
10 13 -27 33 0
10 -13 27 33 0
10 -13 -27 -33 0
-10 13 27 33 0
-10 13 -27 -33 0
-10 -13 27 -33 0
-10 -13 -27 33 0
21 34 35 -36 0
21 34 -35 36 0
21 -34 35 36 0
21 -34 -35 -36 0
-21 34 35 36 0
-21 34 -35 -36 0
-21 -34 35 -36 0
-21 -34 -35 36 0
34 37 38 -39 0
34 37 -38 39 0
34 -37 38 39 0
34 -37 -38 -39 0
-34 37 38 39 0
-34 37 -38 -39 0
-34 -37 38 -39 0
-34 -37 -38 39 0
14 40 41 -42 0
14 40 -41 42 0
14 -40 41 42 0
14 -40 -41 -42 0
-14 40 41 42 0
-14 40 -41 -42 0
-14 -40 41 -42 0
-14 -40 -41 42 0
15 37 43 44 0
15 37 -43 -44 0
15 -37 43 -44 0
15 -37 -43 44 0
-15 37 43 -44 0
-15 37 -43 44 0
-15 -37 43 44 0
-15 -37 -43 -44 0
6 18 45 46 0
6 18 -45 -46 0
6 -18 45 -46 0
6 -18 -45 46 0
-6 18 45 -46 0
-6 18 -45 46 0
-6 -18 45 46 0
-6 -18 -45 -46 0
47 48 49 50 0
47 48 -49 -50 0
47 -48 49 -50 0
47 -48 -49 50 0
-47 48 49 -50 0
-47 48 -49 50 0
-47 -48 49 50 0
-47 -48 -49 -50 0
51 52 53 -54 0
51 52 -53 54 0
51 -52 53 54 0
51 -52 -53 -54 0
-51 52 53 54 0
-51 52 -53 -54 0
-51 -52 53 -54 0
-51 -52 -53 54 0
30 43 45 -55 0
30 43 -45 55 0
30 -43 45 55 0
30 -43 -45 -55 0
-30 43 45 55 0
-30 43 -45 -55 0
-30 -43 45 -55 0
-30 -43 -45 55 0
7 51 56 57 0
7 51 -56 -57 0
7 -51 56 -57 0
7 -51 -56 57 0
-7 51 56 -57 0
-7 51 -56 57 0
-7 -51 56 57 0
-7 -51 -56 -57 0
47 56 58 59 0
47 56 -58 -59 0
47 -56 58 -59 0
47 -56 -58 59 0
-47 56 58 -59 0
-47 56 -58 59 0
-47 -56 58 59 0
-47 -56 -58 -59 0
24 33 48 -60 0
24 33 -48 60 0
24 -33 48 60 0
24 -33 -48 -60 0
-24 33 48 60 0
-24 33 -48 -60 0
-24 -33 48 -60 0
-24 -33 -48 60 0
55 61 62 63 0
55 61 -62 -63 0
55 -61 62 -63 0
55 -61 -62 63 0
-55 61 62 -63 0
-55 61 -62 63 0
-55 -61 62 63 0
-55 -61 -62 -63 0
1 8 64 -65 0
1 8 -64 65 0
1 -8 64 65 0
1 -8 -64 -65 0
-1 8 64 65 0
-1 8 -64 -65 0
-1 -8 64 -65 0
-1 -8 -64 65 0
11 25 40 52 0
11 25 -40 -52 0
11 -25 40 -52 0
11 -25 -40 52 0
-11 25 40 -52 0
-11 25 -40 52 0
-11 -25 40 52 0
-11 -25 -40 -52 0
38 41 64 -66 0
38 41 -64 66 0
38 -41 64 66 0
38 -41 -64 -66 0
-38 41 64 66 0
-38 41 -64 -66 0
-38 -41 64 -66 0
-38 -41 -64 66 0
22 58 60 61 0
22 58 -60 -61 0
22 -58 60 -61 0
22 -58 -60 61 0
-22 58 60 -61 0
-22 58 -60 61 0
-22 -58 60 61 0
-22 -58 -60 -61 0
19 44 67 -68 0
19 44 -67 68 0
19 -44 67 68 0
19 -44 -67 -68 0
-19 44 67 68 0
-19 44 -67 -68 0
-19 -44 67 -68 0
-19 -44 -67 68 0
12 28 42 69 0
12 28 -42 -69 0
12 -28 42 -69 0
12 -28 -42 69 0
-12 28 42 -69 0
-12 28 -42 69 0
-12 -28 42 69 0
-12 -28 -42 -69 0
20 26 49 53 0
20 26 -49 -53 0
20 -26 49 -53 0
20 -26 -49 53 0
-20 26 49 -53 0
-20 26 -49 53 0
-20 -26 49 53 0
-20 -26 -49 -53 0
2 16 62 -65 0
2 16 -62 65 0
2 -16 62 65 0
2 -16 -62 -65 0
-2 16 62 65 0
-2 16 -62 -65 0
-2 -16 62 -65 0
-2 -16 -62 65 0
3 31 46 -67 0
3 31 -46 67 0
3 -31 46 67 0
3 -31 -46 -67 0
-3 31 46 67 0
-3 31 -46 -67 0
-3 -31 46 -67 0
-3 -31 -46 67 0
35 50 57 -66 0
35 50 -57 66 0
35 -50 57 66 0
35 -50 -57 -66 0
-35 50 57 66 0
-35 50 -57 -66 0
-35 -50 57 -66 0
-35 -50 -57 66 0
59 63 68 -70 0
59 63 -68 70 0
59 -63 68 70 0
59 -63 -68 -70 0
-59 63 68 70 0
-59 63 -68 -70 0
-59 -63 68 -70 0
-59 -63 -68 70 0
36 39 69 70 0
36 39 -69 -70 0
36 -39 69 -70 0
36 -39 -69 70 0
-36 39 69 -70 0
-36 39 -69 70 0
-36 -39 69 70 0
-36 -39 -69 -70 0
4 29 32 -54 0
4 29 -32 54 0
4 -29 32 54 0
4 -29 -32 -54 0
-4 29 32 54 0
-4 29 -32 -54 0
-4 -29 32 -54 0
-4 -29 -32 54 0
